results_rootrelaxation/bin018_070_049.srr.sol
solution status: optimal solution found
objective value:                                    0
_var2825_                          0.0871933434759172 	(obj:0)
_var2889_                           0.476447127375673 	(obj:0)
_var2893_                          0.0579000071324699 	(obj:0)
_var2899_                         0.00507861065586704 	(obj:0)
_var2959_                          0.0269655267473074 	(obj:0)
_var2990_                          0.0866473124505747 	(obj:0)
_var3023_                           0.123201664700738 	(obj:0)
_var3035_                          0.0228875804435629 	(obj:0)
_var3061_                          0.0914511965870051 	(obj:0)
_var3070_                          0.0176748477019066 	(obj:0)
_var3072_                            0.11088264451412 	(obj:0)
_var3091_                          0.0470605076691419 	(obj:0)
_var3092_                           0.150329002158898 	(obj:0)
_var3101_                            0.10432681317651 	(obj:0)
_var3111_                           0.101438580930397 	(obj:0)
_var3120_                           0.379167189818495 	(obj:0)
_var3131_                          0.0513769795631095 	(obj:0)
_var3135_                          0.0721001932126124 	(obj:0)
_var3138_                          0.0423108685560503 	(obj:0)
_var3150_                          0.0634714740586183 	(obj:0)
_var3157_                         0.00107883270361722 	(obj:0)
_var3175_                          0.0911398367569646 	(obj:0)
_var3180_                          0.0212307556625135 	(obj:0)
_var3182_                         0.00507861065586705 	(obj:0)
_var3183_                          0.0150879634509209 	(obj:0)
_var3184_                           0.171573598511813 	(obj:0)
_var3188_                          0.0462486017204931 	(obj:0)
_var3189_                          0.0721201083049926 	(obj:0)
_var3191_                            0.14623882819261 	(obj:0)
_var3198_                           0.291818379845114 	(obj:0)
_var3201_                          0.0179779885337594 	(obj:0)
_var3203_                           0.099768449627876 	(obj:0)
_var3222_                          0.0977035559210932 	(obj:0)
_var3223_                          0.0729275629873674 	(obj:0)
_var3236_                          0.0646750422812365 	(obj:0)
_var3240_                          0.0854775133344824 	(obj:0)
_var3254_                           0.214893229139917 	(obj:0)
_var3258_                           0.253458134184226 	(obj:0)
_var3259_                          0.0109438436827575 	(obj:0)
_var3260_                         0.00914752025769203 	(obj:0)
_var3262_                           0.265590381410374 	(obj:0)
_var3264_                           0.732881863400162 	(obj:0)
_var3266_                          0.0694347353653238 	(obj:0)
_var3284_                          0.0556487325454142 	(obj:0)
_var3287_                           0.167692021967969 	(obj:0)
_var3296_                          0.0949103087826932 	(obj:0)
_var3297_                          0.0259325670798072 	(obj:0)
_var3299_                           0.120015269341659 	(obj:0)
_var3301_                          0.0319229260933837 	(obj:0)
_var3302_                           0.119010684123726 	(obj:0)
_var3308_                           0.122577427293628 	(obj:0)
_var3309_                           0.253470431926006 	(obj:0)
_var3310_                          0.0150879634509209 	(obj:0)
_var3311_                           0.118703610159636 	(obj:0)
_var3319_                           0.296425955967104 	(obj:0)
_var3329_                          0.0350371989816698 	(obj:0)
_var3336_                          0.0260347931835897 	(obj:0)
_var3337_                           0.247675141403411 	(obj:0)
_var3338_                          0.0409661682649121 	(obj:0)
_var3339_                          0.0454111318755715 	(obj:0)
_var3341_                           0.276939983490939 	(obj:0)
_var3348_                          0.0340964435324685 	(obj:0)
_var3350_                          0.0418208542686508 	(obj:0)
_var3351_                           0.104245064027108 	(obj:0)
_var3352_                          0.0166036620276109 	(obj:0)
_var3353_                             0.1899208192677 	(obj:0)
_var3357_                           0.193891913988203 	(obj:0)
_var3361_                          0.0271525442446962 	(obj:0)
_var3362_                           0.265590381410375 	(obj:0)
_var3363_                            0.22100665623281 	(obj:0)
_var3364_                           0.102041343172642 	(obj:0)
_var3367_                           0.224624213145463 	(obj:0)
_var3368_                         0.000883133157903633 	(obj:0)
_var3370_                          0.0348767304523791 	(obj:0)
_var3371_                           0.127788381890533 	(obj:0)
_var3372_                           0.107045879700098 	(obj:0)
_var3373_                           0.147746666596916 	(obj:0)
_var3374_                          0.0942432973573214 	(obj:0)
_var3376_                           0.230599798199535 	(obj:0)
_var3379_                           0.089548535594949 	(obj:0)
_var3381_                          0.0498350621437011 	(obj:0)
_var3384_                         0.00571056822880206 	(obj:0)
_var3385_                           0.329342318646127 	(obj:0)
_var3391_                           0.330854196173229 	(obj:0)
_var3395_                           0.332728941313146 	(obj:0)
_var3396_                           0.168439231416238 	(obj:0)
_var3402_                          0.0246972019555259 	(obj:0)
_var3403_                          0.0568608629693065 	(obj:0)
_var3404_                          0.0946488432344852 	(obj:0)
_var3405_                           0.278970483232861 	(obj:0)
_var3406_                          0.0219348847273223 	(obj:0)
_var3408_                           0.101735275901496 	(obj:0)
_var3410_                          0.0802020423349579 	(obj:0)
_var3413_                           0.133380915098662 	(obj:0)
_var3414_                           0.127838133860746 	(obj:0)
_var3418_                          0.0300419717832857 	(obj:0)
_var3420_                           0.158533289439407 	(obj:0)
_var3421_                          0.0185818787892473 	(obj:0)
_var3423_                           0.209454575176073 	(obj:0)
_var3424_                           0.104646733269619 	(obj:0)
_var3425_                           0.171347084053054 	(obj:0)
_var3427_                          0.0171499567765699 	(obj:0)
_var3428_                           0.249745928610137 	(obj:0)
_var3429_                           0.162471956807596 	(obj:0)
_var3437_                           0.205547975050197 	(obj:0)
_var3438_                           0.185075819442664 	(obj:0)
_var3440_                           0.203454851702095 	(obj:0)
_var3448_                          0.0635306489007694 	(obj:0)
_var3449_                           0.145678364384838 	(obj:0)
_var3450_                            0.16567955566944 	(obj:0)
_var3451_                            0.16567955566944 	(obj:0)
_var3452_                          0.0541771589645753 	(obj:0)
_var3453_                           0.144798567066789 	(obj:0)
_var3454_                           0.184691038298834 	(obj:0)
_var3457_                          0.0207425021904345 	(obj:0)
_var3458_                         0.00846907464552393 	(obj:0)
_var3461_                          0.0684930718318103 	(obj:0)
_var3463_                           0.193414445090537 	(obj:0)
_var3464_                         0.00739589069962754 	(obj:0)
_var3466_                          0.0431349619704325 	(obj:0)
_var3467_                           0.239657814330562 	(obj:0)
_var3469_                            0.18920327731673 	(obj:0)
_var3470_                          0.0138542138082903 	(obj:0)
_var3471_                          0.0375734969369672 	(obj:0)
_var3472_                          0.0203365120881839 	(obj:0)
_var3473_                          0.0925429323690043 	(obj:0)
_var3475_                          0.0481682305812564 	(obj:0)
_var3476_                           0.107928232526698 	(obj:0)
_var3477_                           0.103725471530943 	(obj:0)
_var3478_                           0.159544204180746 	(obj:0)
_var3479_                           0.243325505279631 	(obj:0)
_var3481_                           0.116654078605855 	(obj:0)
_var3482_                           0.209363034285763 	(obj:0)
_var3484_                          0.0581864920120481 	(obj:0)
_var3486_                           0.194759207954008 	(obj:0)
_var3487_                          0.0209263861278182 	(obj:0)
_var3488_                           0.025012628129677 	(obj:0)
_var3491_                            0.16403407398986 	(obj:0)
_var3492_                           0.154469477874198 	(obj:0)
_var3493_                          0.0682490064186066 	(obj:0)
_var3494_                          0.0309225984979547 	(obj:0)
_var3497_                           0.119116269569301 	(obj:0)
_var3498_                          0.0618332635258466 	(obj:0)
_var3503_                          0.0260564476818409 	(obj:0)
_var3513_                          0.0538458857990602 	(obj:0)
